Route #1: 75 93
Route #2: 52 91 50
Route #3: 32 33 53 73 95 24
Route #4: 14 49 6 37 87
Route #5: 3 77 63
Route #6: 80 94 56 21
Route #7: 35 46 31
Route #8: 39 10 18
Route #9: 71 62 99 98 89
Route #10: 86 9 92
Route #11: 81 51 83
Route #12: 79 11 85 30
Route #13: 40 88 67 44
Route #14: 82 60 59
Route #15: 68 90 84 66
Route #16: 74 13 4
Route #17: 15 22 41 20
Route #18: 34 64 96 48 26 47 38
Route #19: 25 65 78 42 28
Route #20: 100 61 23
Route #21: 1 70 54
Route #22: 69 16 55 76
Route #23: 7 2 45 43 29 36 72 57
Route #24: 58 12 5
Route #25: 17 8
Route #26: 19 97 27
Cost 27591.0000
Time 16.0002